c Reduced graph for GEOM50b generated by Cyril Grelier
p edge 38 189
e 1 2
e 1 6
e 1 7
e 1 11
e 1 13
e 1 15
e 1 18
e 1 19
e 1 20
e 1 23
e 1 31
e 1 34
e 1 36
e 2 4
e 2 15
e 2 16
e 2 17
e 2 18
e 2 19
e 2 20
e 2 24
e 2 31
e 2 32
e 2 33
e 2 37
e 3 8
e 3 14
e 3 17
e 3 19
e 3 21
e 3 22
e 3 25
e 3 29
e 3 30
e 3 31
e 3 32
e 3 33
e 3 38
e 4 5
e 4 9
e 4 15
e 4 16
e 4 19
e 4 20
e 4 24
e 4 28
e 4 33
e 4 35
e 4 37
e 5 9
e 5 10
e 5 16
e 5 24
e 5 26
e 5 27
e 5 28
e 5 35
e 5 37
e 6 7
e 6 11
e 6 12
e 6 15
e 6 18
e 6 20
e 6 31
e 6 34
e 6 36
e 7 11
e 7 12
e 7 15
e 7 18
e 7 31
e 7 36
e 7 38
e 8 14
e 8 17
e 8 21
e 8 22
e 8 25
e 8 30
e 8 32
e 8 33
e 9 16
e 9 24
e 9 26
e 9 28
e 9 35
e 9 37
e 10 13
e 10 16
e 10 23
e 10 26
e 10 27
e 10 34
e 10 35
e 11 12
e 11 15
e 11 18
e 11 36
e 12 29
e 12 36
e 12 38
e 13 18
e 13 23
e 13 27
e 13 34
e 14 22
e 14 25
e 14 30
e 14 32
e 15 16
e 15 17
e 15 18
e 15 19
e 15 20
e 15 21
e 15 31
e 15 34
e 15 36
e 16 20
e 16 23
e 16 24
e 16 26
e 16 27
e 16 28
e 16 35
e 16 37
e 17 19
e 17 20
e 17 21
e 17 22
e 17 25
e 17 29
e 17 31
e 17 32
e 17 33
e 17 38
e 18 19
e 18 20
e 18 23
e 18 31
e 18 34
e 18 36
e 19 20
e 19 21
e 19 22
e 19 31
e 19 32
e 19 33
e 20 23
e 20 31
e 20 34
e 20 37
e 21 22
e 21 25
e 21 29
e 21 31
e 21 32
e 21 38
e 22 30
e 22 31
e 22 32
e 22 33
e 23 26
e 23 27
e 23 34
e 24 28
e 24 33
e 24 35
e 24 37
e 25 29
e 25 30
e 25 32
e 25 38
e 26 27
e 26 35
e 27 34
e 28 35
e 28 37
e 29 31
e 29 38
e 30 32
e 31 32
e 31 33
e 31 36
e 31 38
e 32 33
e 35 37
e 36 38
